15
1 0 7
2 0 12
2 1 9
3 1 11
3 2 11
4 0 2
4 1 4
4 2 9
5 1 13
5 2 5
6 0 11
7 4 3
8 1 11
8 2 2
8 4 4
9 2 12
9 3 3
9 5 2
9 7 7
9 8 7
10 0 1
10 1 12
10 2 13
10 4 7
10 5 11
10 7 13
10 9 5
11 0 1
11 2 2
11 3 2
11 4 5
11 5 3
11 8 11
11 10 12
12 0 3
12 2 6
12 4 10
12 5 12
12 9 4
12 10 11
13 0 9
13 1 8
13 10 11
14 0 8
14 1 2
14 3 1
14 4 11
14 6 7
14 8 4
14 9 2
14 12 12
14 13 13
